clingo version 5.6.2
Reading from ...utogen_asp_scripts/ijp_expt_cases-0.dl
Solving...
Answer: 1
res(2) witness(3,1,1) witness(3,2,1) witness(1,2,2) witness(3,2,3) number_of_witnesses(4)
Optimization: 4
Answer: 2
res(2) witness(3,1,1) witness(1,2,2) witness(3,2,3) number_of_witnesses(3)
Optimization: 3
OPTIMUM FOUND

Models       : 2
  Optimum    : yes
Optimization : 3
Calls        : 1
Time         : 0.966s (Solving: 0.67s 1st Model: 0.29s Unsat: 0.37s)
CPU Time     : 0.965s
